p tw 33 35
1 2
2 13
3 4
4 5
5 6
6 7
7 8
8 9
9 10
10 11
10 19
11 12
12 14
12 16
13 24
14 15
15 28
16 17
17 18
18 28
19 20
20 21
21 26
22 23
23 25
24 28
25 26
26 27
28 29
29 30
30 31
30 22
31 32
32 33
33 3
